qbf_easy_train/easy_1117_UNSAT.qdimacs
p cnf 29 77
a 1 19 15 0
e 2 3 4 5 6 7 8 9 10 11 12 13 14 16 17 18 20 21 22 23 24 25 26 27 28 29 0
-1 -2 -3 0
1 2 -3 0
-1 2 3 0
1 -2 3 0
4 3 0
4 1 0
-3 -1 -4 0
6 -5 0
6 3 0
5 -3 -6 0
-8 -5 0
-8 -7 0
5 7 8 0
-9 -5 0
-9 -8 0
5 8 9 0
10 2 0
10 9 0
-2 -9 -10 0
-12 -11 0
-12 11 0
-13 -10 0
-13 -12 0
10 12 13 0
-14 -6 0
-14 -13 0
6 13 14 0
-16 -11 0
-16 -15 0
11 15 16 0
15 5 -18 0
-15 -5 -18 0
15 -5 18 0
-15 5 18 0
19 17 0
19 -18 0
-17 18 -19 0
16 -19 -20 0
-16 19 -20 0
16 19 20 0
-16 -19 20 0
-14 -20 -21 0
14 20 -21 0
-14 20 21 0
14 -20 21 0
22 4 0
22 -21 0
-4 21 -22 0
-24 23 0
-24 -8 0
-23 8 24 0
25 18 0
25 -8 0
-18 8 -25 0
-2 15 -26 0
2 -15 -26 0
-2 -15 26 0
2 15 26 0
25 26 -27 0
-25 -26 -27 0
25 -26 27 0
-25 26 27 0
28 24 0
28 27 0
-24 -27 -28 0
22 28 -29 0
-22 -28 -29 0
22 -28 29 0
-22 28 29 0
-3 24 -10 0
-28 25 22 0
-8 -25 14 -21 29 -24 20 0
-25 -15 -17 0
-28 10 19 -2 -14 -12 0
-14 16 17 28 0
-3 -11 26 -27 0
29 0
