sat_easy_train/easy_1117_UNSAT.dimacs
p cnf 141 490
-1 -2 -3 0
1 2 -3 0
-1 2 3 0
1 -2 3 0
-5 4 0
-5 -1 0
-4 1 5 0
5 6 0
-5 6 0
-7 -3 0
-7 -6 0
3 6 7 0
-10 8 0
-10 9 0
-8 -9 10 0
-11 -10 0
-11 -6 0
10 6 11 0
7 11 -12 0
-7 -11 -12 0
7 -11 12 0
-7 11 12 0
-15 -13 0
-15 14 0
13 -14 15 0
8 -15 -16 0
-8 15 -16 0
8 15 16 0
-8 -15 16 0
17 -16 0
17 7 0
16 -7 -17 0
17 -18 -19 0
-17 18 -19 0
17 18 19 0
-17 -18 19 0
21 -20 0
21 -8 0
20 8 -21 0
-19 -21 -22 0
19 21 -22 0
-19 21 22 0
19 -21 22 0
12 -22 -23 0
-12 22 -23 0
12 22 23 0
-12 -22 23 0
-26 24 0
-26 -25 0
-24 25 26 0
-27 -20 0
-27 26 0
20 -26 27 0
28 21 0
28 10 0
-21 -10 -28 0
-29 -24 0
-29 -5 0
24 5 29 0
5 25 -30 0
-5 -25 -30 0
5 -25 30 0
-5 25 30 0
-31 -29 0
-31 -30 0
29 30 31 0
-2 31 -32 0
2 -31 -32 0
-2 -31 32 0
2 31 32 0
33 -28 0
33 32 0
28 -32 -33 0
-25 34 -35 0
25 -34 -35 0
-25 -34 35 0
25 34 35 0
24 -35 -36 0
-24 35 -36 0
24 35 36 0
-24 -35 36 0
24 -8 -37 0
-24 8 -37 0
24 8 37 0
-24 -8 37 0
38 -37 0
38 15 0
37 -15 -38 0
38 36 -39 0
-38 -36 -39 0
38 -36 39 0
-38 36 39 0
-40 -7 0
-40 -28 0
7 28 40 0
-40 -14 -41 0
40 14 -41 0
-40 14 41 0
40 -14 41 0
-43 -24 0
-43 -42 0
24 42 43 0
41 43 -44 0
-41 -43 -44 0
41 -43 44 0
-41 43 44 0
45 -44 0
45 21 0
44 -21 -45 0
-46 -39 0
-46 45 0
39 -45 46 0
47 -36 0
47 46 0
36 -46 -47 0
-48 -33 0
-48 -47 0
33 47 48 0
-49 -38 0
-49 -14 0
38 14 49 0
4 49 -50 0
-4 -49 -50 0
4 -49 50 0
-4 49 50 0
51 -50 0
51 -38 0
50 38 -51 0
-48 51 -52 0
48 -51 -52 0
-48 -51 52 0
48 51 52 0
27 52 -53 0
-27 -52 -53 0
27 -52 53 0
-27 52 53 0
-54 43 -55 0
54 -43 -55 0
-54 -43 55 0
54 43 55 0
56 -32 0
56 -16 0
32 16 -56 0
57 -55 0
57 -56 0
55 56 -57 0
-58 9 0
-58 4 0
-9 -4 58 0
-59 -28 0
-59 58 0
28 -58 59 0
-60 6 0
-60 -59 0
-6 59 60 0
-61 -42 0
-61 -43 0
42 43 61 0
-61 38 -62 0
61 -38 -62 0
-61 -38 62 0
61 38 62 0
-63 60 0
-63 -62 0
-60 62 63 0
18 -29 -64 0
-18 29 -64 0
18 29 64 0
-18 -29 64 0
-65 29 0
-65 -24 0
-29 24 65 0
-66 64 0
-66 65 0
-64 -65 66 0
-43 58 -67 0
43 -58 -67 0
-43 -58 67 0
43 58 67 0
66 -67 -68 0
-66 67 -68 0
66 67 68 0
-66 -67 68 0
35 25 -69 0
-35 -25 -69 0
35 -25 69 0
-35 25 69 0
-4 -69 -70 0
4 69 -70 0
-4 69 70 0
4 -69 70 0
-71 -68 0
-71 70 0
68 -70 71 0
-72 63 0
-72 71 0
-63 -71 72 0
73 57 0
73 72 0
-57 -72 -73 0
74 -53 0
74 -73 0
53 73 -74 0
-75 17 0
-75 8 0
-17 -8 75 0
-76 -74 0
-76 -75 0
74 75 76 0
77 26 0
77 59 0
-26 -59 -77 0
9 1 -78 0
-9 -1 -78 0
9 -1 78 0
-9 1 78 0
-77 -78 -79 0
77 78 -79 0
-77 78 79 0
77 -78 79 0
-76 -79 -80 0
76 79 -80 0
-76 79 80 0
76 -79 80 0
-81 -4 0
-81 -3 0
4 3 81 0
82 -4 0
82 -81 0
4 81 -82 0
-83 82 0
-83 58 0
-82 -58 83 0
-84 -64 0
-84 83 0
64 -83 84 0
-42 -10 -85 0
42 10 -85 0
-42 10 85 0
42 -10 85 0
86 -84 0
86 85 0
84 -85 -86 0
87 -9 0
87 -38 0
9 38 -87 0
86 -87 -88 0
-86 87 -88 0
86 87 88 0
-86 -87 88 0
-2 -16 -89 0
2 16 -89 0
-2 16 89 0
2 -16 89 0
-89 14 -90 0
89 -14 -90 0
-89 -14 90 0
89 14 90 0
-91 -2 0
-91 -58 0
2 58 91 0
92 -28 0
92 91 0
28 -91 -92 0
-93 92 0
-93 33 0
-92 -33 93 0
-90 -93 -94 0
90 93 -94 0
-90 93 94 0
90 -93 94 0
-95 -88 0
-95 94 0
88 -94 95 0
-96 81 0
-96 -1 0
-81 1 96 0
95 -96 -97 0
-95 96 -97 0
95 96 97 0
-95 -96 97 0
16 31 -98 0
-16 -31 -98 0
16 -31 98 0
-16 31 98 0
2 99 -100 0
-2 -99 -100 0
2 -99 100 0
-2 99 100 0
-101 -100 0
-101 30 0
100 -30 101 0
102 -98 0
102 -101 0
98 101 -102 0
97 102 -103 0
-97 -102 -103 0
97 -102 103 0
-97 102 103 0
104 80 0
104 103 0
-80 -103 -104 0
-23 -104 -105 0
23 104 -105 0
-23 104 105 0
23 -104 105 0
106 -58 0
106 89 0
58 -89 -106 0
-108 -35 0
-108 -107 0
35 107 108 0
-109 -106 0
-109 108 0
106 -108 109 0
110 -8 0
110 81 0
8 -81 -110 0
-18 110 -111 0
18 -110 -111 0
-18 -110 111 0
18 110 111 0
-109 111 -112 0
109 -111 -112 0
-109 -111 112 0
109 111 112 0
113 -5 0
113 24 0
5 -24 -113 0
-114 -64 0
-114 -26 0
64 26 114 0
-115 -113 0
-115 114 0
113 -114 115 0
-116 -115 0
-116 41 0
115 -41 116 0
117 -116 0
117 -58 0
116 58 -117 0
18 -36 -118 0
-18 36 -118 0
18 36 118 0
-18 -36 118 0
-14 118 -119 0
14 -118 -119 0
-14 -118 119 0
14 118 119 0
-120 -119 0
-120 14 0
119 -14 120 0
121 117 0
121 120 0
-117 -120 -121 0
4 31 -122 0
-4 -31 -122 0
4 -31 122 0
-4 31 122 0
121 122 -123 0
-121 -122 -123 0
121 -122 123 0
-121 122 123 0
124 112 0
124 123 0
-112 -123 -124 0
69 -21 -125 0
-69 21 -125 0
69 21 125 0
-69 -21 125 0
5 18 -126 0
-5 -18 -126 0
5 -18 126 0
-5 18 126 0
127 -126 0
127 85 0
126 -85 -127 0
128 -125 0
128 127 0
125 -127 -128 0
-85 -24 -129 0
85 24 -129 0
-85 24 129 0
85 -24 129 0
-128 129 -130 0
128 -129 -130 0
-128 -129 130 0
128 129 130 0
131 -107 0
131 -85 0
107 85 -131 0
132 -131 0
132 -10 0
131 10 -132 0
-130 132 -133 0
130 -132 -133 0
-130 -132 133 0
130 132 133 0
124 -133 -134 0
-124 133 -134 0
124 133 134 0
-124 -133 134 0
-135 -36 0
-135 -81 0
36 81 135 0
-136 28 0
-136 -37 0
-28 37 136 0
-137 -135 0
-137 -136 0
135 136 137 0
85 6 -138 0
-85 -6 -138 0
85 -6 138 0
-85 6 138 0
137 -138 -139 0
-137 138 -139 0
137 138 139 0
-137 -138 139 0
-140 -134 0
-140 -139 0
134 139 140 0
-141 -105 0
-141 -140 0
105 140 141 0
20 69 15 0
-56 -90 -68 -40 0
53 -23 -106 -28 0
132 -119 -16 5 26 38 0
-28 122 -2 0
115 -66 -14 -104 121 -102 0
97 109 -95 -46 135 0
-128 -80 -7 -37 56 61 0
108 46 109 0
-5 -59 0
58 55 122 130 0
-64 -88 140 0
-86 -70 0
-72 40 0
-42 52 98 0
113 141 0
-32 -84 -45 0
40 81 0
100 -72 80 15 97 0
46 61 -12 110 -96 83 0
76 -118 115 0
-9 -75 23 -103 -105 0
-58 -109 0
-35 76 -50 0
-88 -48 -109 -17 -61 3 0
92 112 -123 134 0
131 66 -71 -62 0
130 55 0
-61 -80 100 -44 0
-12 -75 -69 98 0
-141 70 -83 -118 0
112 99 0
-96 -54 0
-67 62 84 -56 -19 0
-10 40 37 0
20 132 -108 -24 -122 0
-115 -41 38 75 0
40 134 90 -118 0
-100 130 -4 -47 0
91 -28 102 -79 -90 -1 0
-53 77 0
-19 -93 -94 128 -70 2 0
-82 -108 0
61 -6 122 0
-17 -81 0
65 -44 0
-132 4 -5 0
73 20 68 -61 -28 0
-28 85 -32 12 0
69 129 80 0
8 109 40 111 140 0
73 -92 -123 0
-114 -63 123 50 117 0
-70 -40 -54 99 83 -57 0
36 -121 0
-125 133 29 106 0
-27 109 -25 -56 -135 0
123 -29 -103 126 61 15 0
-137 60 -84 -18 -54 0
-131 -11 135 74 0
-101 -63 -125 0
-80 -117 0
33 -31 22 10 0
93 97 0
141 0
